System 1209
1.0
12.5892539403855999  -0.0001179531970297  -0.0000629382131642
0.0000000000410697  12.4060270077502004  -0.0000070974396721
0.0000000000733593  0.0000000000004532  12.2390603398277005
Au
108
Cartesian
0.0693981466859815  0.5790391966603710  1.8414416940914800
0.3724237298436160  2.7323165876567899  3.9378651788648300
2.4798075694449402  0.9256121741948120  3.9582366727287002
2.1686003453029299  3.1037107757336799  1.7764847507520900
0.3818324365727780  1.0822594785117701  6.1695539520906602
0.1504625135752120  3.1912923505331401  8.0250419756363698
2.3724616736170301  1.1415218578126800  8.1050372390301604
2.5061959653802601  3.1369371968445998  5.8022975989499503
0.3718266562540670  0.9943366272628030  10.0085547249864995
0.0860551739135603  2.6605186844289102  12.0770846824881009
2.2956107752545800  0.9591940302823970  12.1938915845272007
2.3169197502705599  3.1352502288346100  10.0855372084907007
0.0635634753519419  4.8859152010576201  1.7774692799007401
0.1081321544745530  7.1208820131213804  3.8027193801104802
2.1089185405017501  5.0566773767604696  3.8452837583237298
2.3434004090068701  7.0034651343042098  2.0797972484406801
0.2823318917504080  4.8976458594849896  5.8943315669643201
0.0800519182664084  7.0041230282161200  8.0044580669930401
2.3225122762045700  5.1666243223248998  8.1071389054469005
2.3161564651392301  7.1388310174721497  5.9488527909533797
0.0695000818591732  4.7761940097886297  10.1603936686995997
0.2147069978976930  6.9636278027850400  0.0490807102513691
2.2770833696298700  5.0635514646562996  12.1204155191190992
2.1241585823688500  7.0798939092965396  10.0292064908844996
0.1648916564424860  9.5764719276713794  2.0590949920820600
0.2841935319276450  11.5500005617428005  4.1157248469160104
2.2470888157497400  9.1990764852243903  4.0050357594383597
2.4073641840733999  11.2820247588050009  1.9490961218423599
0.2081576608889010  9.1002486496496893  6.0214883852950898
0.2405363911911020  11.2954441092782005  8.2012951193575905
2.1753315170793899  9.1869131803729402  8.1254181378634804
2.1668721785445499  11.4936069726814001  6.1549894615304304
0.1328444531795040  9.2306690668631806  10.0384436048768002
0.0868353551914435  11.0699810587244993  11.9514254006839007
2.1035436443816700  9.0906068845136705  12.1899214816958992
2.3675721367031000  10.9855543314110999  10.1882067467858999
4.4323226317000604  0.8562572438219040  1.7418788665759299
4.4233770769258900  2.8282146048720800  3.8887534592312498
6.5271020814664302  0.8256261806745030  3.9880143632429101
6.5385729871790996  3.0247028521009298  2.0204912760662199
4.4084724314896704  0.8788760250630691  5.9980339524409496
4.3178452101610398  3.0449926275647199  7.9798504584088903
6.5390179644390098  0.9286984500450201  8.2102279857869593
6.5776104665038204  2.9150074684877598  5.9875691913194302
4.4311665002943297  0.6592285175660070  10.2036097647087001
4.4371281227737001  2.9695266953668402  11.8618278933588996
6.5753476012519103  0.9627214265527390  12.0628251229653003
6.6358876734846701  3.1086376116082102  10.1153077596319996
4.3603775455903397  4.6645301798969498  1.8296646950372299
4.3901425642838996  7.0782622181769499  3.9591242623560201
6.3614245803223799  4.9540378414595603  3.9833425922375798
6.3704510652704904  7.0998650868123798  2.1064744449116000
4.2820001346871699  5.0935895297408100  5.9220730967126496
4.5730097877508697  7.1538023396372097  7.9622166389560904
6.6386654205190601  4.9313498024492501  8.0502004672688301
6.5974980208893204  6.9365430427275001  5.9251701285729101
4.4737738746442597  5.2868504580036300  9.8918886968053403
4.2814173899018302  6.8951499228870103  12.1918238606300005
6.6053563387003296  5.1167922242805002  0.0257049357992082
6.6285015512429197  7.0341446421341702  10.0451859835582002
4.3155952359869403  8.9260354949152205  1.7971458266059801
4.4696320222495496  11.1177584645737006  3.7744066761075898
6.4444361064823603  9.0061958955843107  4.1195465847354598
6.5188432269738303  11.2224517262503998  1.8001119761057300
4.2341757804752698  9.2577493238033703  5.9846751545872001
4.2546987905763700  11.1631414496986991  8.0404494876792700
6.6936715724193103  8.9702190470229404  7.8542819010869600
6.4067814400962497  11.2849646658423008  6.1111418317597801
4.4525172341245698  8.9524270075226902  9.9784905223152105
4.4272023440953898  11.0772713804470992  12.0771742326225997
6.4466157040438503  8.9901734404205698  12.1276734846720000
6.3811428130558303  11.1187852515892001  10.0322844562483002
8.5596232987940493  0.5718087687939460  1.9352143854767201
8.5483676914882700  2.7542122526082000  3.9583921205414598
10.5818381697924995  0.6422765206083260  4.0557643450927303
10.8586179927052005  2.7321868519287200  2.2143522456732199
8.5282250436312808  0.8001369974427870  6.0141173311680500
8.6814603172756204  2.7926667808006802  8.0994978450838797
10.6684854807733007  0.8443479498504600  7.9512522476952201
10.9617773256220996  2.8091523767533300  6.0627487059809599
8.5908169265007501  0.6174879150689400  10.1956490389111991
8.5957850518104504  2.9068950916498002  0.0623006148277982
10.5693802454522991  0.8273365044163030  12.1474031002868994
10.6129803609288995  2.6785930629539898  10.0567215370141003
8.7639888767688703  4.8725642579684996  1.9269345751633100
8.7329014493215293  6.6879230617415697  3.8873066500700002
10.7012623623636998  4.7480151293733703  3.8963736657043402
10.5488276656690001  7.0491714100077996  2.0280951215356602
8.7079892216674999  4.8338672070673301  6.0239235570364800
8.8055125584841107  6.8668009339803602  7.9637902241368996
10.7753851309671997  4.7537919039251602  8.2638859340888402
10.7459636141950003  6.7288015434358401  5.9324429228712896
8.8662373501774994  5.0093539094760304  10.1322572281199008
8.5860509162212999  7.0948378931493403  0.2058131395906010
10.9121477372620994  5.0096655565279704  12.1217346757415996
10.6999095113616001  7.2086744479528004  10.2079007324425994
8.4628857382713001  9.1533022108656699  2.0062674259760001
8.6161767233126607  11.0976583832709004  4.1189808529505996
10.8927234780615994  9.1526308050129295  3.9192709426537702
10.4241194028540001  11.1616116394166998  1.9421212645531301
8.8008091109176902  8.9081328150871109  5.8880565472768200
8.5616263109946793  11.2451428004577991  7.9648361723108199
10.8195840469632003  8.9942811930011803  7.9566728449042996
10.8561724155155002  11.1565525611606002  6.1477814867639697
8.5186765473092194  8.9207630844683408  9.9615226174210694
8.4197227953483402  11.0124075419616005  11.9930468365622005
10.8041395986327995  9.0685013384756505  12.2352295977074998
10.5955268217132996  11.2215836693768001  10.0019525998123999
