System 1159
1.0
12.3731126176495998  -0.0000903844407563  -0.0000030327904235
0.0000000000230892  12.3785623746575997  0.0000633185786655
0.0000000000638212  -0.0000000000001656  12.4181001791606000
Au
108
Cartesian
0.1254162474097350  0.7325624754121109  1.4580297181479001
0.0035504916693191  2.7522281464846499  3.6527341354742302
2.2970205462862698  0.6742294435746580  3.3388792310603601
2.3789417252196099  2.7309714879914702  1.5195241278076299
0.0655158747740504  0.5186836727641140  5.4853564010841103
0.0614752171030898  2.6068161721818499  7.6859668603681000
2.2150880771117700  0.4714408733992770  7.6498462856217504
2.1500058647797902  2.6378899950545600  5.4972930390314998
0.4101613398713570  0.5434810337071730  9.7239550324957307
0.0212713151771932  2.6558430959509698  11.7731183177076009
2.0935106327852702  0.4316592728325580  11.9250534510268000
2.3041709549068798  2.7562894298599798  9.5943704238363399
0.0348732479396437  4.8269355943575203  1.6300244066340901
0.1129270695937170  6.8213571578385697  3.5913127884066198
2.2976169092064200  4.8674717566345098  3.6189636753729801
2.1071539440196601  6.6828859123837896  1.5678466809024700
0.3202906083597480  4.8336269922980204  5.6918894895272398
0.1012390262627920  6.9745330312461897  7.6651525407064804
2.2781181945925102  4.7283915047985703  7.6050633336420796
2.2495287819750001  6.7873233558471897  5.5438807783600401
0.2248257543546620  4.6042522853724703  9.5938898190015607
0.2116991690997710  6.8050902984171504  11.7763333459368997
1.9516418286337900  4.4959150850366099  11.9173588960622006
2.2084258168698501  6.6260838524077998  9.5821390144714798
0.2304872243723580  8.9429800721858399  1.4433591708266900
0.2199495352272870  11.1808998819329997  3.4570692943960299
2.2225848224710099  8.8436838940726403  3.4724360092580300
2.3450574913451701  10.9281208420037999  1.5271393596620100
12.2166262563496009  8.8259614605261092  5.6395623923316096
0.0849151395620282  10.8938758477686992  7.7063073085141900
2.0748500642887899  8.9636492654833102  7.3963418258141402
2.1167327686803601  11.0201363774474004  5.6326531407014597
0.2362337791027330  8.6919899908972607  9.6177976347686300
0.1063105276466680  10.9601740615166996  11.7859568801137993
2.1191184375988801  8.9563666544825207  11.7670853869512992
2.2454670440530200  10.8823551411742994  9.7099345309512994
4.2435098866459304  0.6922976469228130  1.3394506534800401
4.3478692749877599  2.6657683968630601  3.6242628249620399
6.4349819019679897  0.5055973016126460  3.7733326863205199
6.3732009565295797  2.5026283407558698  1.4940988455006801
4.2890182058774400  0.5419711981754070  5.4756848282845203
4.2303798867792404  2.6865628267269499  7.5292941923975398
6.2657399579350699  0.5282656030398540  7.9409598240505002
6.4936401164585904  2.5195348337741899  5.6884481257651203
4.1574183555742499  0.5885067606239049  9.7849442083998106
4.1781470000885097  2.6653499611938400  11.7699060112866007
6.1982616886563600  0.4138093098696150  11.8572436559357008
6.2597162165421700  2.5202722893601801  9.9331267225641309
4.3614505300711803  4.6647567860401900  1.5651648442070001
4.3434331236455801  6.7539454567004702  3.5594435862027600
6.6508049661129700  4.8139182413837798  3.4339918684424302
6.3646552271726096  6.6382023720332404  1.3950348366165899
4.3534998456526202  4.5241524374339503  5.5890997511339799
4.2429233265554398  6.7612682502962000  7.7142281124365804
6.1313980310319502  4.7679332213704901  7.6752561879466503
6.4113059026988903  6.5693107594297100  5.5805761989283100
4.1936502129412396  4.6981662256930301  9.8342744349308706
3.9501738177133601  6.6622169197257000  11.8010234043581992
6.2937678086035103  4.4449891457034196  11.8011599852684004
6.1085870417951504  6.7463047069782496  9.8801518915831004
4.1523187299659101  8.8011945580510496  1.5177333296988100
4.4897491845804796  10.8085492583066003  3.4699192824048799
6.3518330365991700  8.6536052807364694  3.3558728354748100
6.2800223213024902  10.7184178325738007  1.1745935621213599
4.2893275485001503  8.8193793586456906  5.6985122938575703
4.2519875695388301  10.7865151722338997  7.5035154753835398
6.2687688032925699  8.8252354229646706  7.6631750369374201
6.5274817156551803  10.7526502036573000  5.8366754676730004
4.0342964081435602  8.5977028928136594  9.7290194724038894
4.2195359444773803  10.7598610119793001  11.9994144531797993
6.2494478124038402  8.7796778243779805  11.7752072122958005
6.0531946344000200  10.7203370996301004  9.7833322362665598
8.3902082271371103  0.4588634814633950  1.5173899423074899
8.4411666607780500  2.6667190560067802  3.3899881940246499
10.3496941251069998  0.5260685704031360  3.4647272893451602
10.5252410302041000  2.5270682728908600  1.5614836373967900
8.4672793322457807  0.5692143363925100  5.7223407668898103
8.3437006233440094  2.5345360779183199  7.6859904705750202
10.6807602547445999  0.5418314401672710  7.7576811539250201
10.3075789358882997  2.5468326062471300  5.6563551529206304
8.2943425711764807  0.3720614378153070  9.7712032072959598
8.6570874144366599  2.4256593788855501  11.8420663863412994
10.5005841627978000  0.4843049578867170  11.7403515007713004
10.4882721652436999  2.6602378808206901  9.7282456702269595
8.4832757241610803  4.6540213016737697  1.2688269873608100
8.4378542182473009  6.8810036062931204  3.4434520249630198
10.3097047690498993  4.8735973704675404  3.6980203019812898
10.4802698671363999  6.8255481652147401  1.5992713671304699
8.4345817227632303  4.6852053381222696  5.7551891914724997
8.1826889808481695  6.6427077148564102  7.7685227678668003
10.4167752626017993  4.5956714052678302  7.5101304802993001
10.1565183054285999  6.6634306275403796  5.7294337421199701
8.6175589915712294  4.7528921765747700  9.5427981163373197
8.3113294515303302  6.8208855362792900  11.6508988911692004
10.4213127772998000  4.7166614561217397  11.8254932378396997
10.5415429539496994  6.8356181123315700  9.7762939956925798
8.5892152964756008  8.7334398904020993  1.2802651407115599
8.2366337637548508  10.7648958990744994  3.4283582247822100
10.4362963610335004  8.8452439263199896  3.4622470099785398
10.5527835908564995  10.8367749438593997  1.6433045336471399
8.2850305229837105  8.6174043275639907  5.4709737674545398
8.4350595209139296  10.6382810111865993  7.7274349333366601
10.3155726436338000  8.6831165541734308  7.7227350241283004
10.2337491206628997  10.7940023799786999  5.6621408730483100
8.2617534487375401  8.9343004484971509  9.8014677951285201
8.5167209885110395  10.8363675871477998  11.7419007371616004
10.5801337853465007  8.8255388319759103  11.9275753984973996
10.7075042844716997  10.9191169036690994  9.7037682928138498
