System 3
1.0
17.6649608600000008  0.0000000000000000  0.0000000000000000
8.8319152200000008  15.2858494900000004  0.0000000000000000
0.0000000000000000  0.0000000000000000  70.0000000000000000
Au
286
Cartesian
0.0000000000000000  0.0000000000000000  0.0000000000000000
2.9441600000000498  0.0000000000000000  0.0000000000000000
5.8883199999999700  0.0000000000000000  0.0000000000000000
8.8324900000000408  0.0000000000000000  0.0000000000000000
11.7766500000000001  0.0000000000000000  0.0000000000000000
14.7208100000000002  0.0000000000000000  0.0000000000000000
1.4719900000000701  2.5476400000000199  0.0000000000000000
4.4161499999999902  2.5476400000000199  0.0000000000000000
7.3603100000000401  2.5476400000000199  0.0000000000000000
10.3044700000000002  2.5476400000000199  0.0000000000000000
13.2486300000000004  2.5476400000000199  0.0000000000000000
16.1927900000001017  2.5476400000000199  0.0000000000000000
2.9439699999999900  5.0952800000000504  0.0000000000000000
5.8881300000000403  5.0952800000000504  0.0000000000000000
8.8322999999999805  5.0952800000000504  0.0000000000000000
11.7764600000000002  5.0952800000000504  0.0000000000000000
14.7206200000000997  5.0952800000000504  0.0000000000000000
17.6647800000000004  5.0952800000000504  0.0000000000000000
4.4159600000000001  7.6429199999999611  0.0000000000000000
7.3601199999999203  7.6429199999999611  0.0000000000000000
10.3042800000000003  7.6429199999999611  0.0000000000000000
13.2484400000000004  7.6429199999999611  0.0000000000000000
16.1926099999999984  7.6429199999999611  0.0000000000000000
19.1367699999999985  7.6429199999999611  0.0000000000000000
8.8321100000000108  10.1905699999999992  0.0000000000000000
11.7762700000000997  10.1905699999999992  0.0000000000000000
14.7204300000000003  10.1905699999999992  0.0000000000000000
17.6645900000000005  10.1905699999999992  0.0000000000000000
20.6087500000001000  10.1905699999999992  0.0000000000000000
23.5529000000000011  10.1905699999999992  0.0000000000000000
25.0248908599999993  12.7382100000000005  0.0000000000000000
10.3040900000000999  12.7382100000000005  0.0000000000000000
13.2482500000000005  12.7382100000000005  0.0000000000000000
16.1924099999999989  12.7382100000000005  0.0000000000000000
19.1365799999999986  12.7382100000000005  0.0000000000000000
22.0807399999999987  12.7382100000000005  0.0000000000000000
1.4720499999999701  0.8491600000000440  2.3913299999998801
4.4162100000000200  0.8491600000000440  2.3913299999998801
7.3603800000000801  0.8491600000000440  2.3913299999998801
10.3045399999999994  0.8491600000000440  2.3913299999998801
13.2487000000001007  0.8491600000000440  2.3913299999998801
16.1928599999999996  0.8491600000000440  2.3913299999998801
2.9440399999999798  3.3967999999999599  2.3913299999998801
5.8882000000000199  3.3967999999999599  2.3913299999998801
8.8323599999999498  3.3967999999999599  2.3913299999998801
11.7765199999999997  3.3967999999999599  2.3913299999998801
14.7206899999998999  3.3967999999999599  2.3913299999998801
17.6648500000000013  3.3967999999999599  2.3913299999998801
4.4160200000000396  5.9444500000000202  2.3913299999998801
7.3601899999999798  5.9444500000000202  2.3913299999998801
10.3043499999999995  5.9444500000000202  2.3913299999998801
13.2485099999999001  5.9444500000000202  2.3913299999998801
16.1926699999999997  5.9444500000000202  2.3913299999998801
19.1368299999999998  5.9444500000000202  2.3913299999998801
5.8880099999999800  8.4920900000000401  2.3913299999998801
8.8321700000000298  8.4920900000000401  2.3913299999998801
11.7763300000000992  8.4920900000000401  2.3913299999998801
14.7204999999999995  8.4920900000000401  2.3913299999998801
17.6646600000001008  8.4920900000000401  2.3913299999998801
20.6088200000000015  8.4920900000000401  2.3913299999998801
7.3599999999999897  11.0397300000000005  2.3913299999998801
10.3041599999999001  11.0397300000000005  2.3913299999998801
13.2483199999999997  11.0397300000000005  2.3913299999998801
16.1924799999999998  11.0397300000000005  2.3913299999998801
19.1366399999999004  11.0397300000000005  2.3913299999998801
22.0808099999999996  11.0397300000000005  2.3913299999998801
8.8319800000000406  13.5873699999999999  2.3913299999998801
11.7761399999999998  13.5873699999999999  2.3913299999998801
14.7203099999999996  13.5873699999999999  2.3913299999998801
17.6644699999998984  13.5873699999999999  2.3913299999998801
20.6086300000000016  13.5873699999999999  2.3913299999998801
23.5527900000000017  13.5873699999999999  2.3913299999998801
13.2593753258960003  4.0792024262337296  4.7036209513838099
10.1673041893422997  9.4353242269208408  4.6932344332949301
16.1859731798103006  4.0796413634363100  4.7009291701595597
11.6333951687399999  11.9803919750590993  4.6945930841479102
17.8187322737645992  11.9695891917700994  4.6921139308444504
19.2931685298913997  9.4294648338928493  4.6989924370995997
14.7116801083297997  11.9182082761620993  4.6417534410441803
17.6922581155290004  6.7737322628695802  4.6398396362069301
10.3176760173695001  4.1245643935003100  4.6992001509463499
11.7504362468229999  6.7666520123169498  4.6523471009216202
8.7272360882985502  6.8657320565670501  4.7045440070360698
13.1427448636262998  14.5077175264591993  4.6929750930572904
19.1297459779848005  4.1109156062348298  4.6970965914441596
16.3089809345391998  14.4995385627698994  4.7039612488005202
16.2239181266311014  9.3691720518861601  4.6404861630555700
20.7240891935322011  6.8605852279252302  4.6955722076562898
13.2079636165154994  9.3243000367367301  4.6758760923820102
14.7206515733833001  6.7484978180436199  4.6477512243048800
22.0967242891539009  14.4330788102423995  4.7504558434267903
23.5570021890055017  11.9100075656594999  4.7511777452986603
25.0132409834990987  14.4259773026325000  4.7561367097304599
2.9368718242468299  1.6916137468123000  4.7325437155430503
8.8450739833237506  1.6961860306831800  4.7318228616799702
5.8972391829159099  6.8091862163901196  4.7335768482626799
14.7270148683887001  1.5910798411769700  4.7688015627432199
8.7477960076649595  11.9475546160518000  4.7633656175456300
20.7066258775283991  11.9455061214572993  4.7566202085590401
7.3497199414263497  4.2367598273037697  4.8244967330792896
5.8959805933306297  1.7267988107680301  4.8183468499890214
11.7923871433646994  1.6220883222600699  4.7624506289088897
7.3019034148203401  9.3923045475166091  4.7669610394235402
22.1462384030537009  9.3871385555600995  4.7684491694931097
17.6511401253342015  1.6218333106279199  4.7636829705866504
19.2084702526844993  14.4654275367006999  4.7690366193390199
10.2365207684099992  14.4727523202792003  4.7647379818535596
4.4485905675543203  4.2329177041327704  4.8155590563600903
9.0176534075304797  5.1997528761098302  6.9127924605525601
11.8674726789356999  4.9362018101394503  6.9172346856510902
10.2461957690840002  7.7921449681177197  6.8946813108691902
13.0938772627999001  12.7424657836631994  6.8899949348718303
16.3566215113519000  12.7241159690118000  6.8909581836333098
14.7338298206898006  15.1130713977859994  6.9020518921283198
17.5847050118902004  4.9554534114704802  6.8950943186503597
19.2233393386354017  7.7681081592715300  6.8874988467801197
20.4597816401179990  5.1771315881782796  6.8963714463180503
11.6250905529474995  10.3062102286622999  6.8968575242151999
14.7312101840973000  4.9256314883860002  6.9165985137570303
17.8368009691611000  10.2821901787886993  6.8943018349501504
14.7072429520488992  10.1894366578210001  6.8858141989840203
13.2449987833298000  7.5577864370842702  6.9513203305623801
16.2020481587609986  7.6591555814696299  6.8786611036326901
10.4856160632895996  6.0785772517665002  9.0511904133342700
14.7448794355667001  13.4014847822279002  9.0363172190006402
19.0089673985140983  6.0266375792171099  9.0364725050055608
13.3222963393297000  5.6097994953740997  9.1792747662841805
11.6304644970406006  8.6815801595876305  9.1066617756242501
13.0561950926009001  11.1152628496170003  9.1109429826517108
16.1654955828401015  5.7921806113856196  9.0975114803812094
16.4086240665390015  11.0826952165134003  9.0968363385166793
17.8382857118084992  8.6391573836770501  9.1002603108295492
14.7143849299859006  8.5008694878673001  9.1170092352534002
11.8768586911537994  6.9358894004910399  11.2329999582733002
17.6196955383082994  6.8470024339603999  11.2269153523401002
14.7628240261251005  11.7754815541445996  11.2162714420548006
13.0349253601834008  9.5124184444944007  11.3059829981614008
14.7665877121257001  6.6784441018469503  11.2749151391008997
16.4650881120094006  9.4707869907784303  11.2965252702223005
13.3055643483346007  7.7003336937036302  13.3765605453864005
16.2373050839553983  7.6593493272898900  13.3925415832505994
14.7798972356345999  10.1638809892222000  13.3721061869851994
14.7712051836443994  8.4809945127108204  15.5151515063864007
14.6147082982294005  8.5720920962482694  18.0774600359677997
14.5860697642500998  6.8665069001613999  20.1965938829033007
13.1919013062447004  9.3892039079319893  20.2429394437504016
16.0681062666266996  9.4098520624282802  20.2069694975605998
14.6608486357634007  10.5110636658003003  22.3116774970559995
12.9432976161631998  7.5460225062893702  22.3002904023692992
16.1899032684670985  7.6230461905411797  22.3215475290524985
14.5774904236953997  5.2317098571238398  22.3493183203582007
11.8251070304267003  10.1738420570877004  22.4085623756710000
17.5073218090789986  10.1667085534836001  22.3558217335026015
14.6504738914363006  8.5140773116480393  24.5030226371002016
13.2647418221957007  11.2735886369582001  24.5103007836084004
11.5914656338725006  8.3699796780569500  24.5059906737497997
16.5037933823735017  5.7856593983020099  24.3773319140688010
12.9984323892762994  5.9162414968713204  24.4969124311734987
16.0995197194117985  11.2648107450177992  24.4935972484430984
17.7044374704356997  8.3784960381478495  24.4850144413879995
14.6760262975282991  3.6044539368039699  24.5369381762345995
10.4238102148001008  10.9756217933664999  24.5883481519729017
18.9316558108881985  10.9464349282394995  24.5387543576588989
16.1616450298833989  9.3617629097506310  26.7196811672394006
13.2201372902620005  9.3398883828357810  26.7288908128459006
14.7011601394303000  12.1042601168842996  26.6992874802599012
14.7851792385182996  6.7456383558248501  26.6445594604015987
17.8176500866152985  6.6936179569850500  26.6554102771197989
11.5942617114527007  6.7138194578418799  26.6981343795142010
8.9549876465406903  11.8270937129665992  26.7059761667076003
11.8351078347454006  12.0450864848371992  26.7233300997148007
14.7175207882250003  1.9004577933718900  26.6779954995925017
10.1922477895945001  9.2134885806824496  26.7186094290808995
20.4226096815112008  11.7791017257807997  26.6817118217247007
16.3613518769466992  4.2381084218666301  26.6672338681321008
13.0852195005578995  4.2736970511393002  26.7052946606157988
17.5664940463264010  12.0248672776054004  26.7070009236156984
19.1816076971200999  9.1853106856483695  26.6781456228133997
24.9786034298923987  12.7676862305563006  28.7899853227518996
1.5356583002729400  2.5183120828226802  28.8290736670574006
10.2363172234936002  2.5240125699584999  28.8327994864887991
4.4738094228057097  7.5963573205725297  28.8299212179433013
7.2908188939714798  7.5982477656080203  28.8281596923477998
23.5416680715777993  15.2715885346865008  28.7748790559557008
2.9481950032351798  0.0842004709889213  28.8299207228827008
8.8205156192872192  0.0855915870207737  28.8300266923040986
22.0893801616379015  12.7515789473587002  28.7731065092200993
8.7388515169641394  5.0471395918390796  28.8335826796670993
3.0306021744364799  5.0435274955723397  28.8325144844225996
5.8853832443090299  0.1088986837733550  28.8333999735351014
23.5309936467925986  10.1832956618870991  28.8646852797020017
11.7654771840074002  0.0059163287201878  28.8610654979536996
17.6655714850149010  0.0138689000327308  28.8637687575103996
5.8831220658100696  5.0759720987748302  28.8451055498663003
7.3423120843369896  2.5593841192141999  28.8440321017309991
4.4318346131174096  2.5606696839095502  28.8405993699156014
14.7071299999796992  10.2332623264725004  28.9497916994675002
16.2248718938121002  7.6141038196364903  28.9424317998076006
8.7030096569545208  10.1324121694302995  28.9066587958767016
13.2410687246698995  7.5967118304389096  28.9255435864207016
13.1331204183941992  2.4896181269111599  28.8944107636916989
20.7069745218367984  10.1115492862628997  28.8903812725579989
16.2975036068773989  2.4950579744410102  28.8929988945907006
10.2929926588629996  12.8803586774095002  28.9066806610846001
19.1250583749775984  12.8615317231656991  28.8953294637753011
17.6919410174312013  10.2034141251145005  28.9526053666943000
11.7337520083427993  10.2033439900139999  28.9599169617418006
14.7314323720597997  5.0580047511028097  28.9444286349643995
10.1583262934532996  7.5623117613615696  28.9058194213974993
11.6266639633007998  5.0237147178811101  28.9012041823372989
19.2662436275079010  7.5482249104463106  28.8845146913661992
17.8100263210704988  5.0168537558886399  28.8788050670503011
13.2505252666390998  12.9133028232086993  28.9077537019729007
16.1803530450628017  12.9127845324314006  28.9039199474207003
1.4721000000000299  0.8484100000000030  31.2032899999998001
4.4162599999999497  0.8484100000000030  31.2032899999998001
7.3604099999999804  0.8484100000000030  31.2032899999998001
10.3045700000000000  0.8484100000000030  31.2032899999998001
13.2487299999999006  0.8484100000000030  31.2032899999998001
16.1929000000000016  0.8484100000000030  31.2032899999998001
2.9440799999999498  3.3960500000000300  31.2032899999998001
5.8882399999999997  3.3960500000000300  31.2032899999998001
8.8324000000000495  3.3960500000000300  31.2032899999998001
11.7765599999999999  3.3960500000000300  31.2032899999998001
14.7207200000000000  3.3960500000000300  31.2032899999998001
17.6648800000000996  3.3960500000000300  31.2032899999998001
4.4160700000000199  5.9436900000000499  31.2032899999998001
7.3602300000000698  5.9436900000000499  31.2032899999998001
10.3043899999999997  5.9436900000000499  31.2032899999998001
13.2485499999999998  5.9436900000000499  31.2032899999998001
16.1927100000001012  5.9436900000000499  31.2032899999998001
19.1368699999999983  5.9436900000000499  31.2032899999998001
5.8880500000000202  8.4913399999999992  31.2032899999998001
8.8322099999999413  8.4913399999999992  31.2032899999998001
11.7763700000000000  8.4913399999999992  31.2032899999998001
14.7205300000000001  8.4913399999999992  31.2032899999998001
17.6646900000000002  8.4913399999999992  31.2032899999998001
20.6088500000000003  8.4913399999999992  31.2032899999998001
7.3600399999999704  11.0389800000000005  31.2032899999998001
10.3041999999999998  11.0389800000000005  31.2032899999998001
13.2483600000000994  11.0389800000000005  31.2032899999998001
16.1925199999999982  11.0389800000000005  31.2032899999998001
19.1366799999999984  11.0389800000000005  31.2032899999998001
22.0808399999999985  11.0389800000000005  31.2032899999998001
8.8320200000000195  13.5866199999999999  31.2032899999998001
11.7761800000000996  13.5866199999999999  31.2032899999998001
14.7203400000000002  13.5866199999999999  31.2032899999998001
17.6645000000000003  13.5866199999999999  31.2032899999998001
20.6086600000000999  13.5866199999999999  31.2032899999998001
23.5528200000000005  13.5866199999999999  31.2032899999998001
2.9441500000000000  1.6975700000000500  33.5946200000001980
5.8883100000000503  1.6975700000000500  33.5946200000001980
8.8324699999999705  1.6975700000000500  33.5946200000001980
11.7766300000000008  1.6975700000000500  33.5946200000001980
14.7207900000001004  1.6975700000000500  33.5946200000001980
17.6649500000000010  1.6975700000000500  33.5946200000001980
4.4161299999999999  4.2452200000000007  33.5946200000001980
7.3602900000000497  4.2452200000000007  33.5946200000001980
10.3044499999999992  4.2452200000000007  33.5946200000001980
13.2486099999999993  4.2452200000000007  33.5946200000001980
16.1927699999999000  4.2452200000000007  33.5946200000001980
19.1369299999999996  4.2452200000000007  33.5946200000001980
5.8881200000000700  6.7928600000000197  33.5946200000001980
8.8322799999999901  6.7928600000000197  33.5946200000001980
11.7764399999999991  6.7928600000000197  33.5946200000001980
14.7205999999999992  6.7928600000000197  33.5946200000001980
17.6647600000000011  6.7928600000000197  33.5946200000001980
20.6089200000001007  6.7928600000000197  33.5946200000001980
7.3600999999999894  9.3405000000000395  33.5946200000001980
10.3042599999999993  9.3405000000000395  33.5946200000001980
13.2484199999999994  9.3405000000000395  33.5946200000001980
16.1925799999999995  9.3405000000000395  33.5946200000001980
19.1367400000000991  9.3405000000000395  33.5946200000001980
22.0808999999999997  9.3405000000000395  33.5946200000001980
8.8320900000000009  11.8881399999999999  33.5946200000001980
11.7762499999998997  11.8881399999999999  33.5946200000001980
14.7204099999999993  11.8881399999999999  33.5946200000001980
17.6645700000000012  11.8881399999999999  33.5946200000001980
20.6087299999998983  11.8881399999999999  33.5946200000001980
23.5528900000000014  11.8881399999999999  33.5946200000001980
10.3040700000001006  14.4357799999999994  33.5946200000001980
13.2482399999999991  14.4357799999999994  33.5946200000001980
16.1923999999999992  14.4357799999999994  33.5946200000001980
19.1365499999999003  14.4357799999999994  33.5946200000001980
22.0807099999999998  14.4357799999999994  33.5946200000001980
25.0248799999999001  14.4357799999999994  33.5946200000001980
